
Gurobi 10.0.2 (linux64) logging started Thu 18 Jul 2024 11:29:54 PM -05

Set parameter LogFile to value "gurobi.log"
Gurobi Optimizer version 10.0.2 build v10.0.2rc0 (linux64)

CPU model: Intel(R) Core(TM) i5-1035G1 CPU @ 1.00GHz, instruction set [SSE2|AVX|AVX2|AVX512]
Thread count: 4 physical cores, 8 logical processors, using up to 8 threads

Academic license 2446675 - for non-commercial use only - registered to mi___@epn.edu.ec
Optimize a model with 4893 rows, 2280 columns and 16762 nonzeros
Model fingerprint: 0x3e68b07c
Variable types: 0 continuous, 2280 integer (0 binary)
Coefficient statistics:
  Matrix range     [5e-01, 8e+01]
  Objective range  [1e+00, 1e+00]
  Bounds range     [1e+00, 2e+03]
  RHS range        [1e+00, 5e+03]
Found heuristic solution: objective 57731.000000
Presolve removed 4893 rows and 2280 columns
Presolve time: 0.01s
Presolve: All rows and columns removed

Explored 0 nodes (0 simplex iterations) in 0.01 seconds (0.00 work units)
Thread count was 1 (of 8 available processors)

Solution count 2: 57789 57731 

Optimal solution found (tolerance 1.00e-04)
Best objective 5.778900000000e+04, best bound 5.778900000000e+04, gap 0.0000%
